CONTCAR_AFI_MS_linear
1.0
       13.5439996719         0.0000000000         0.0000000000
       -6.7719998360        11.7294477847         0.0000000000
        0.0000000000         0.0000000000        17.1539001465
   Si    O
   48   96
Direct
     0.465119988         0.331230015         0.155929998
     0.665369987         0.554750025         0.406529993
     0.668770015         0.133880004         0.155929998
     0.445250005         0.110619999         0.406529993
     0.866119981         0.534879982         0.155929998
     0.889379978         0.334630013         0.406529993
     0.534879982         0.668770015         0.155929998
     0.334630013         0.445250005         0.406529993
     0.331230015         0.866119981         0.155929998
     0.554750025         0.889379978         0.406529993
     0.133880004         0.465119988         0.155929998
     0.110619999         0.665369987         0.406529993
     0.534879982         0.668770015         0.344069988
     0.334630013         0.445250005         0.093470000
     0.331230015         0.866119981         0.344069988
     0.554750025         0.889379978         0.093470000
     0.133880004         0.465119988         0.344069988
     0.110619999         0.665369987         0.093470000
     0.465119988         0.331230015         0.344069988
     0.665369987         0.554750025         0.093470000
     0.668770015         0.133880004         0.344069988
     0.445250005         0.110619999         0.093470000
     0.866119981         0.534879982         0.344069988
     0.889379978         0.334630013         0.093470000
     0.465119988         0.331230015         0.655929983
     0.665369987         0.554750025         0.906530023
     0.668770015         0.133880004         0.655929983
     0.445250005         0.110619999         0.906530023
     0.866119981         0.534879982         0.655929983
     0.889379978         0.334630013         0.906530023
     0.534879982         0.668770015         0.655929983
     0.334630013         0.445250005         0.906530023
     0.331230015         0.866119981         0.655929983
     0.554750025         0.889379978         0.906530023
     0.133880004         0.465119988         0.655929983
     0.110619999         0.665369987         0.906530023
     0.534879982         0.668770015         0.844070017
     0.334630013         0.445250005         0.593469977
     0.331230015         0.866119981         0.844070017
     0.554750025         0.889379978         0.593469977
     0.133880004         0.465119988         0.844070017
     0.110619999         0.665369987         0.593469977
     0.465119988         0.331230015         0.844070017
     0.665369987         0.554750025         0.593469977
     0.668770015         0.133880004         0.844070017
     0.445250005         0.110619999         0.593469977
     0.866119981         0.534879982         0.844070017
     0.889379978         0.334630013         0.593469977
     0.413480014         0.207220003         0.114969999
     0.372099996         0.372460008         0.150309995
     0.580500007         0.419790000         0.108470000
     0.792779982         0.206249997         0.114969999
     0.627539992         0.999639988         0.150309995
     0.580209970         0.160710007         0.108470000
     0.793749988         0.586520016         0.114969999
     0.000360000         0.627900004         0.150309995
     0.839290023         0.419499993         0.108470000
     0.586520016         0.792779982         0.114969999
     0.627900004         0.627539992         0.150309995
     0.419499993         0.580209970         0.108470000
     0.207220003         0.793749988         0.114969999
     0.372460008         0.000360000         0.150309995
     0.419790000         0.839290023         0.108470000
     0.206249997         0.413480014         0.114969999
     0.999639988         0.372099996         0.150309995
     0.160710007         0.580500007         0.108470000
     0.586520016         0.792779982         0.385030001
     0.627900004         0.627539992         0.349689990
     0.419499993         0.580209970         0.391530007
     0.207220003         0.793749988         0.385030001
     0.372460008         0.000360000         0.349689990
     0.419790000         0.839290023         0.391530007
     0.206249997         0.413480014         0.385030001
     0.999639988         0.372099996         0.349689990
     0.160710007         0.580500007         0.391530007
     0.413480014         0.207220003         0.385030001
     0.372099996         0.372460008         0.349689990
     0.580500007         0.419790000         0.391530007
     0.792779982         0.206249997         0.385030001
     0.627539992         0.999639988         0.349689990
     0.580209970         0.160710007         0.391530007
     0.793749988         0.586520016         0.385030001
     0.000360000         0.627900004         0.349689990
     0.839290023         0.419499993         0.391530007
     0.465119988         0.331230015         0.250000000
     0.668770015         0.133880004         0.250000000
     0.866119981         0.534879982         0.250000000
     0.534879982         0.668770015         0.250000000
     0.331230015         0.866119981         0.250000000
     0.133880004         0.465119988         0.250000000
     0.665369987         0.554750025         0.000000000
     0.445250005         0.110619999         0.000000000
     0.889379978         0.334630013         0.000000000
     0.334630013         0.445250005         0.000000000
     0.554750025         0.889379978         0.000000000
     0.110619999         0.665369987         0.000000000
     0.413480014         0.207220003         0.614970028
     0.372099996         0.372460008         0.650309980
     0.580500007         0.419790000         0.608470023
     0.792779982         0.206249997         0.614970028
     0.627539992         0.999639988         0.650309980
     0.580209970         0.160710007         0.608470023
     0.793749988         0.586520016         0.614970028
     0.000360000         0.627900004         0.650309980
     0.839290023         0.419499993         0.608470023
     0.586520016         0.792779982         0.614970028
     0.627900004         0.627539992         0.650309980
     0.419499993         0.580209970         0.608470023
     0.207220003         0.793749988         0.614970028
     0.372460008         0.000360000         0.650309980
     0.419790000         0.839290023         0.608470023
     0.206249997         0.413480014         0.614970028
     0.999639988         0.372099996         0.650309980
     0.160710007         0.580500007         0.608470023
     0.586520016         0.792779982         0.885029972
     0.627900004         0.627539992         0.849690020
     0.419499993         0.580209970         0.891529977
     0.207220003         0.793749988         0.885029972
     0.372460008         0.000360000         0.849690020
     0.419790000         0.839290023         0.891529977
     0.206249997         0.413480014         0.885029972
     0.999639988         0.372099996         0.849690020
     0.160710007         0.580500007         0.891529977
     0.413480014         0.207220003         0.885029972
     0.372099996         0.372460008         0.849690020
     0.580500007         0.419790000         0.891529977
     0.792779982         0.206249997         0.885029972
     0.627539992         0.999639988         0.849690020
     0.580209970         0.160710007         0.891529977
     0.793749988         0.586520016         0.885029972
     0.000360000         0.627900004         0.849690020
     0.839290023         0.419499993         0.891529977
     0.465119988         0.331230015         0.750000000
     0.668770015         0.133880004         0.750000000
     0.866119981         0.534879982         0.750000000
     0.534879982         0.668770015         0.750000000
     0.331230015         0.866119981         0.750000000
     0.133880004         0.465119988         0.750000000
     0.665369987         0.554750025         0.500000000
     0.445250005         0.110619999         0.500000000
     0.889379978         0.334630013         0.500000000
     0.334630013         0.445250005         0.500000000
     0.554750025         0.889379978         0.500000000
     0.110619999         0.665369987         0.500000000
