AFI_CatlowFF                          
1.0
       13.5440263748         0.0000000000         0.0000000000
       -6.7720131874        11.7294709101         0.0000000000
        0.0000000000         0.0000000000        16.4739475250
   Si    O
   48   96
Direct
     0.465130001         0.331203014         0.155941993
     0.465130001         0.331203014         0.655942023
     0.665376008         0.554736018         0.406529993
     0.665376008         0.554736018         0.906530023
     0.668751001         0.133894995         0.155893996
     0.668751001         0.133894995         0.655893981
     0.445201010         0.110620998         0.406547010
     0.445201010         0.110620998         0.906547010
     0.866100013         0.534883022         0.155946001
     0.866100013         0.534883022         0.655946016
     0.889367998         0.334666997         0.406547010
     0.889369011         0.334666997         0.906547010
     0.534905016         0.668775976         0.155937999
     0.534904003         0.668775022         0.655938029
     0.334668994         0.445250005         0.406500012
     0.334668994         0.445250005         0.906499028
     0.331250012         0.866137028         0.155931994
     0.331250012         0.866137028         0.655932009
     0.554728985         0.889355004         0.406529993
     0.554728985         0.889355004         0.906530023
     0.133855999         0.465110987         0.155910000
     0.133855999         0.465110004         0.655910015
     0.110596001         0.665373027         0.406518996
     0.110596001         0.665373027         0.906518996
     0.534916997         0.668774009         0.344058007
     0.534916997         0.668774009         0.844057977
     0.334670007         0.445253015         0.093505003
     0.334670007         0.445253015         0.593505025
     0.331227005         0.866123021         0.344080001
     0.331227005         0.866123021         0.844079971
     0.554749012         0.889373004         0.093479998
     0.554749012         0.889373004         0.593479991
     0.133863002         0.465135008         0.344096005
     0.133863002         0.465135992         0.844096005
     0.110595003         0.665365994         0.093457997
     0.110595003         0.665365994         0.593457997
     0.465149999         0.331218004         0.344060004
     0.465149999         0.331218004         0.844058990
     0.665362000         0.554736018         0.093459003
     0.665362000         0.554736018         0.593459010
     0.668751001         0.133898005         0.344089001
     0.668751001         0.133898005         0.844088972
     0.445228994         0.110639997         0.093456000
     0.445228994         0.110639997         0.593455970
     0.866119981         0.534913003         0.344067007
     0.866119981         0.534913003         0.844066978
     0.889360011         0.334639996         0.093457997
     0.889360011         0.334639013         0.593457997
     0.413486004         0.207215995         0.114975996
     0.413486004         0.207215995         0.614975989
     0.372130007         0.372426987         0.150316000
     0.372130007         0.372428000         0.650316000
     0.580464005         0.419784009         0.108487003
     0.580464005         0.419784009         0.608487010
     0.792801023         0.206273004         0.114975996
     0.792801023         0.206273004         0.614975989
     0.627552986         0.999659002         0.150322005
     0.627552986         0.999659002         0.650322020
     0.580177009         0.160693005         0.108474001
     0.580177009         0.160693005         0.608474016
     0.793785989         0.586537004         0.114978999
     0.793785989         0.586537004         0.614979029
     0.000349000         0.627896011         0.150315002
     0.000349000         0.627896011         0.650314987
     0.839309990         0.419515997         0.108475998
     0.839308977         0.419515997         0.608475983
     0.586521983         0.792788029         0.114965998
     0.586521983         0.792787015         0.614965975
     0.627909005         0.627535999         0.150300995
     0.627909005         0.627535999         0.650300980
     0.419510007         0.580247998         0.108466998
     0.419508994         0.580247998         0.608466983
     0.207228005         0.793721974         0.114964001
     0.207228005         0.793721974         0.614964008
     0.372487009         0.000390000         0.150297999
     0.372487009         0.000390000         0.650297999
     0.419773996         0.839267015         0.108465999
     0.419773996         0.839267015         0.608466029
     0.206212997         0.413451999         0.114965998
     0.206212997         0.413451999         0.614965975
     0.999583006         0.372047007         0.150301993
     0.999583006         0.372047991         0.650301993
     0.160736993         0.580531001         0.108459003
     0.160736993         0.580531001         0.608458996
     0.586526990         0.792786002         0.385031998
     0.586526990         0.792786002         0.885031998
     0.627906024         0.627525985         0.349711001
     0.627906024         0.627525985         0.849711001
     0.419512987         0.580254018         0.391534001
     0.419512987         0.580254972         0.891533971
     0.207227007         0.793700993         0.385037988
     0.207227007         0.793700993         0.885038018
     0.372487992         0.000374000         0.349694014
     0.372487992         0.000374000         0.849694014
     0.419766992         0.839275002         0.391521007
     0.419768006         0.839275002         0.891520977
     0.206202999         0.413444012         0.385030001
     0.206202999         0.413444012         0.885029972
     0.999589026         0.372040004         0.349691004
     0.999589026         0.372040004         0.849690974
     0.160723001         0.580541015         0.391544998
     0.160723001         0.580541015         0.891544998
     0.413484991         0.207221001         0.385022998
     0.413484991         0.207221001         0.885022998
     0.372128010         0.372422010         0.349680007
     0.372128010         0.372422010         0.849680007
     0.580469012         0.419800013         0.391514987
     0.580469012         0.419800013         0.891515017
     0.792816997         0.206266001         0.385033995
     0.792816997         0.206266999         0.885034025
     0.627552986         0.999643028         0.349675000
     0.627552986         0.999643028         0.849675000
     0.580177009         0.160706997         0.391537994
     0.580177009         0.160706997         0.891538024
     0.793774009         0.586512983         0.385015011
     0.793774009         0.586512983         0.885015011
     0.000347000         0.627878010         0.349702001
     0.000347000         0.627878010         0.849702001
     0.839308023         0.419533014         0.391512007
     0.839307010         0.419532001         0.891511977
     0.494372994         0.325049013         0.250000000
     0.494372994         0.325049013         0.749998987
     0.674960971         0.169385999         0.249987006
     0.674960971         0.169385999         0.749987006
     0.830636978         0.505600989         0.250012010
     0.830636978         0.505600989         0.750011981
     0.505563974         0.674969018         0.249999002
     0.505563974         0.674969018         0.749998987
     0.325040996         0.830590010         0.250007987
     0.325040996         0.830588996         0.750007987
     0.169422001         0.494428009         0.250001013
     0.169422001         0.494428009         0.750001013
     0.657926023         0.585646987         0.999991000
     0.657926023         0.585646987         0.499991000
     0.414384007         0.072302997         0.000005000
     0.414384007         0.072302997         0.500005007
     0.927707016         0.342060000         0.000005000
     0.927707016         0.342060000         0.500005007
     0.342052013         0.414342999         0.000004000
     0.342052013         0.414342999         0.500003994
     0.585657001         0.927715003         0.500002980
     0.585657001         0.927715003         0.000004000
     0.072329998         0.657923996         0.999984026
     0.072329998         0.657923996         0.499983996
